db/data/120732757712659993911398446256578731.z3.out
-------------------
2500.045768991
